TYPE : Vertex Cover
DIMENSION: 30
EDGE_DATA_SECTION:
0 2
0 6
0 7
0 10
0 12
0 13
0 16
0 24
0 26
0 27
1 2
1 4
1 6
1 27
1 29
2 4
2 6
3 5
3 6
3 28
3 29
4 5
4 9
4 11
4 12
4 16
5 7
5 13
5 21
5 27
6 14
6 22
7 8
7 14
7 24
8 12
8 16
8 17
8 18
8 24
8 26
9 17
10 11
10 16
10 23
10 27
10 28
11 15
11 22
11 23
12 14
12 15
12 16
12 25
12 27
13 14
13 19
13 23
13 28
14 21
14 22
14 26
14 27
15 21
15 28
16 17
16 25
17 19
17 28
18 19
18 21
18 25
18 26
18 29
19 25
20 29
21 23
22 23
22 26
22 29
23 25
23 28
24 25
24 26
25 29
27 28
27 29
28 29
-1
VERTEX_DEGREE:
10.0 5.0 4.0 4.0 7.0 6.0 6.0 5.0 7.0 2.0 6.0 5.0 8.0 6.0 8.0 4.0 7.0 5.0 6.0 4.0 1.0 5.0 6.0 7.0 5.0 7.0 6.0 8.0 8.0 8.0
VERTEX_COVER:
0 1 4 5 6 8 10 12 14 15 16 17 18 19 22 23 24 28 29
EOF
